p cnf 176 453
a 2 4 10 12 29 31 34 35 38 40 43 46 19 21 54 169 1 9 18 28 53 60 0
d 23 1 9 0
d 149 18 28 0
d 130 43 46 0
d 155 53 60 0
d 3 2 0
d 5 4 0
d 6 2 4 0
d 7 1 2 4 0
d 8 1 2 4 0
d 11 10 0
d 13 12 0
d 14 10 12 0
d 15 9 10 12 0
d 16 9 10 12 0
d 17 1 2 4 9 10 12 0
d 20 19 0
d 22 19 21 0
d 24 19 21 1 9 0
d 25 18 19 21 1 9 0
d 26 18 19 21 1 9 0
d 27 1 2 4 9 10 12 18 19 21 0
d 30 29 0
d 32 31 0
d 33 29 31 0
d 36 34 35 0
d 37 29 31 34 35 0
d 39 38 0
d 41 40 0
d 42 38 40 0
d 44 43 0
d 45 38 40 43 0
d 47 46 0
d 48 38 40 43 46 0
d 49 29 31 34 35 38 40 43 46 0
d 50 28 29 31 34 35 38 40 43 46 0
d 51 28 29 31 34 35 38 40 43 46 0
d 52 1 2 4 9 10 12 18 19 21 28 29 31 34 35 38 40 43 46 0
d 55 54 2 0
d 56 54 2 4 0
d 57 53 54 2 4 0
d 58 53 54 2 4 0
d 59 1 2 4 9 10 12 18 19 21 28 29 31 34 35 38 40 43 46 53 54 0
d 61 10 12 29 0
d 62 10 12 29 31 0
d 63 60 10 12 29 31 0
d 64 60 10 12 29 31 0
d 65 1 2 4 9 10 12 18 19 21 28 29 31 34 35 38 40 43 46 53 54 60 0
d 66 2 0
d 67 2 4 0
d 68 2 4 0
d 69 2 4 0
d 70 10 2 0
d 71 10 2 4 0
d 72 10 2 4 0
d 73 2 4 10 0
d 74 2 4 10 0
d 75 2 4 10 12 0
d 76 2 4 10 12 0
d 77 2 4 10 12 0
d 78 29 2 0
d 79 29 2 4 0
d 80 10 12 29 2 4 0
d 81 10 12 29 2 4 0
d 82 2 4 10 12 29 0
d 83 29 31 0
d 84 29 31 1 9 0
d 85 2 4 10 12 0
d 86 29 31 2 4 10 12 0
d 87 29 31 1 9 2 4 10 12 0
d 88 2 4 10 12 29 31 1 9 0
d 89 34 2 0
d 90 34 2 4 0
d 91 34 2 4 10 12 29 31 0
d 92 34 2 4 10 12 29 31 0
d 93 2 4 10 12 29 31 1 9 34 0
d 94 34 0
d 95 29 31 34 0
d 96 29 31 34 35 0
d 97 1 9 29 31 34 35 0
d 98 2 4 10 12 29 31 34 35 0
d 99 1 9 29 31 34 35 2 4 10 12 0
d 100 2 4 10 12 29 31 1 9 34 35 0
d 101 38 2 0
d 102 38 2 4 0
d 103 34 35 38 2 4 0
d 104 10 12 29 31 34 35 38 2 4 0
d 105 35 0
d 106 34 35 0
d 107 34 35 38 2 4 0
d 108 10 12 29 31 34 35 38 2 4 0
d 109 10 12 29 31 34 35 38 2 4 0
d 110 2 4 10 12 29 31 1 9 34 35 38 0
d 111 38 40 0
d 112 38 40 1 9 0
d 113 29 31 34 35 38 40 1 9 0
d 114 29 31 34 35 0
d 115 38 40 2 4 10 12 0
d 116 29 31 34 35 38 40 2 4 10 12 0
d 117 29 31 34 35 38 40 1 9 2 4 10 12 0
d 118 2 4 10 12 29 31 1 9 34 35 38 40 0
d 119 34 35 38 0
d 120 34 35 38 40 0
d 121 43 2 0
d 122 43 2 4 0
d 123 43 2 4 10 12 29 31 0
d 124 34 35 38 40 43 2 4 10 12 29 31 0
d 125 34 35 38 0
d 126 34 35 38 40 0
d 127 34 35 38 40 43 2 4 10 12 29 31 0
d 128 34 35 38 40 43 2 4 10 12 29 31 0
d 129 2 4 10 12 29 31 1 9 34 35 38 40 43 0
d 131 38 40 43 46 0
d 132 1 9 29 31 34 35 0
d 133 38 40 43 46 1 9 29 31 34 35 0
d 134 38 40 43 46 0
d 135 2 4 10 12 29 31 34 35 0
d 136 38 40 43 46 2 4 10 12 29 31 34 35 0
d 137 38 40 43 46 1 9 29 31 34 35 2 4 10 12 0
d 138 2 4 10 12 29 31 1 9 34 35 38 40 43 46 0
d 139 43 46 0
d 140 19 2 0
d 141 19 2 4 0
d 142 43 46 19 2 4 0
d 143 10 12 29 31 34 35 38 40 0
d 144 43 46 19 2 4 10 12 29 31 34 35 38 40 0
d 145 10 12 29 31 34 35 38 40 0
d 146 43 46 19 2 4 10 12 29 31 34 35 38 40 0
d 147 43 46 19 2 4 10 12 29 31 34 35 38 40 0
d 148 2 4 10 12 29 31 1 9 34 35 38 40 43 46 19 0
d 150 19 21 2 4 10 12 0
d 151 29 31 34 35 38 40 43 46 0
d 152 19 21 2 4 10 12 29 31 34 35 38 40 43 46 0
d 153 18 28 19 21 2 4 10 12 29 31 34 35 38 40 43 46 0
d 154 2 4 10 12 29 31 1 9 34 35 38 40 43 46 19 18 28 21 0
d 156 43 46 19 0
d 157 21 0
d 158 43 46 19 21 0
d 159 34 35 38 40 43 46 19 21 0
d 160 53 60 34 35 38 40 43 46 19 21 0
d 161 54 2 4 10 12 29 31 0
d 162 34 35 38 40 43 46 19 21 0
d 163 54 2 4 10 12 29 31 34 35 38 40 43 46 19 21 0
d 164 53 60 34 35 38 40 43 46 19 21 54 2 4 10 12 29 31 0
d 165 2 4 10 12 29 31 1 9 34 35 38 40 43 46 19 18 28 21 53 60 54 0
d 166 19 21 0
d 167 54 0
d 168 19 21 54 0
d 170 19 21 54 169 0
d 171 38 40 43 46 19 21 54 169 0
d 172 1 9 29 31 34 35 38 40 43 46 19 21 54 169 0
d 173 2 4 10 12 29 31 34 35 38 40 43 46 19 21 54 169 0
d 174 1 9 29 31 34 35 38 40 43 46 19 21 54 169 2 4 10 12 0
d 175 2 4 10 12 29 31 1 9 34 35 38 40 43 46 19 18 28 21 53 60 54 169 0
d 176 1 2 4 9 10 12 18 19 21 28 29 31 34 35 38 40 43 46 53 54 60 169 0
3 2 0
-3 -2 0
5 4 0
-5 -4 0
-6 3 0
-6 5 0
6 -3 -5 0
7 -1 -6 0
7 1 6 0
-7 -1 6 0
-7 1 -6 0
8 7 0
-8 -7 0
11 10 0
-11 -10 0
13 12 0
-13 -12 0
-14 11 0
-14 13 0
14 -11 -13 0
15 -9 -14 0
15 9 14 0
-15 -9 14 0
-15 9 -14 0
16 15 0
-16 -15 0
17 -8 0
17 -16 0
-17 8 16 0
20 19 0
-20 -19 0
-22 20 0
-22 21 0
22 -20 -21 0
-24 22 0
-24 23 0
24 -22 -23 0
25 -18 -24 0
25 18 24 0
-25 -18 24 0
-25 18 -24 0
26 25 0
-26 -25 0
27 -17 0
27 -26 0
-27 17 26 0
30 29 0
-30 -29 0
32 31 0
-32 -31 0
-33 30 0
-33 32 0
33 -30 -32 0
36 -34 -35 0
36 34 35 0
-36 -34 35 0
-36 34 -35 0
-37 33 0
-37 36 0
37 -33 -36 0
39 38 0
-39 -38 0
41 40 0
-41 -40 0
-42 39 0
-42 41 0
42 -39 -41 0
44 43 0
-44 -43 0
-45 42 0
-45 44 0
45 -42 -44 0
47 46 0
-47 -46 0
-48 45 0
-48 47 0
48 -45 -47 0
-49 37 0
-49 48 0
49 -37 -48 0
50 -28 -49 0
50 28 49 0
-50 -28 49 0
-50 28 -49 0
51 50 0
-51 -50 0
52 -27 0
52 -51 0
-52 27 51 0
-55 54 0
-55 3 0
55 -54 -3 0
-56 55 0
-56 5 0
56 -55 -5 0
57 -53 -56 0
57 53 56 0
-57 -53 56 0
-57 53 -56 0
58 57 0
-58 -57 0
59 -52 0
59 -58 0
-59 52 58 0
-61 14 0
-61 30 0
61 -14 -30 0
-62 61 0
-62 32 0
62 -61 -32 0
63 -60 -62 0
63 60 62 0
-63 -60 62 0
-63 60 -62 0
64 63 0
-64 -63 0
65 -59 0
65 -64 0
-65 59 64 0
66 -2 -2 0
66 2 2 0
-66 -2 2 0
-66 2 -2 0
-67 3 0
-67 4 0
67 -3 -4 0
68 -67 -67 0
68 67 67 0
-68 -67 67 0
-68 67 -67 0
-69 66 0
-69 68 0
69 -66 -68 0
-70 10 0
-70 3 0
70 -10 -3 0
-71 70 0
-71 5 0
71 -70 -5 0
72 -71 -71 0
72 71 71 0
-72 -71 71 0
-72 71 -71 0
-73 69 0
-73 72 0
73 -69 -72 0
-74 6 0
-74 11 0
74 -6 -11 0
-75 74 0
-75 12 0
75 -74 -12 0
76 -75 -75 0
76 75 75 0
-76 -75 75 0
-76 75 -75 0
-77 73 0
-77 76 0
77 -73 -76 0
-78 29 0
-78 3 0
78 -29 -3 0
-79 78 0
-79 5 0
79 -78 -5 0
-80 14 0
-80 79 0
80 -14 -79 0
81 -80 -80 0
81 80 80 0
-81 -80 80 0
-81 80 -80 0
-82 77 0
-82 81 0
82 -77 -81 0
-83 30 0
-83 31 0
83 -30 -31 0
-84 83 0
-84 23 0
84 -83 -23 0
-85 74 0
-85 13 0
85 -74 -13 0
-86 83 0
-86 85 0
86 -83 -85 0
87 -84 -86 0
87 84 86 0
-87 -84 86 0
-87 84 -86 0
-88 82 0
-88 87 0
88 -82 -87 0
-89 34 0
-89 3 0
89 -34 -3 0
-90 89 0
-90 5 0
90 -89 -5 0
-91 90 0
-91 62 0
91 -90 -62 0
92 -91 -91 0
92 91 91 0
-92 -91 91 0
-92 91 -91 0
-93 88 0
-93 92 0
93 -88 -92 0
94 34 0
-94 -34 0
-95 33 0
-95 94 0
95 -33 -94 0
-96 95 0
-96 35 0
96 -95 -35 0
-97 23 0
-97 96 0
97 -23 -96 0
-98 85 0
-98 96 0
98 -85 -96 0
99 -97 -98 0
99 97 98 0
-99 -97 98 0
-99 97 -98 0
-100 93 0
-100 99 0
100 -93 -99 0
-101 38 0
-101 3 0
101 -38 -3 0
-102 101 0
-102 5 0
102 -101 -5 0
-103 36 0
-103 102 0
103 -36 -102 0
-104 62 0
-104 103 0
104 -62 -103 0
105 35 0
-105 -35 0
-106 94 0
-106 105 0
106 -94 -105 0
-107 106 0
-107 102 0
107 -106 -102 0
-108 62 0
-108 107 0
108 -62 -107 0
109 -104 -108 0
109 104 108 0
-109 -104 108 0
-109 104 -108 0
-110 100 0
-110 109 0
110 -100 -109 0
-111 39 0
-111 40 0
111 -39 -40 0
-112 111 0
-112 23 0
112 -111 -23 0
-113 37 0
-113 112 0
113 -37 -112 0
-114 95 0
-114 105 0
114 -95 -105 0
-115 111 0
-115 85 0
115 -111 -85 0
-116 114 0
-116 115 0
116 -114 -115 0
117 -113 -116 0
117 113 116 0
-117 -113 116 0
-117 113 -116 0
-118 110 0
-118 117 0
118 -110 -117 0
-119 36 0
-119 39 0
119 -36 -39 0
-120 119 0
-120 41 0
120 -119 -41 0
-121 43 0
-121 3 0
121 -43 -3 0
-122 121 0
-122 5 0
122 -121 -5 0
-123 122 0
-123 62 0
123 -122 -62 0
-124 120 0
-124 123 0
124 -120 -123 0
-125 106 0
-125 39 0
125 -106 -39 0
-126 125 0
-126 41 0
126 -125 -41 0
-127 126 0
-127 123 0
127 -126 -123 0
128 -124 -127 0
128 124 127 0
-128 -124 127 0
-128 124 -127 0
-129 118 0
-129 128 0
129 -118 -128 0
-131 42 0
-131 130 0
131 -42 -130 0
-132 23 0
-132 37 0
132 -23 -37 0
-133 131 0
-133 132 0
133 -131 -132 0
-134 45 0
-134 46 0
134 -45 -46 0
-135 85 0
-135 114 0
135 -85 -114 0
-136 134 0
-136 135 0
136 -134 -135 0
137 -133 -136 0
137 133 136 0
-137 -133 136 0
-137 133 -136 0
-138 129 0
-138 137 0
138 -129 -137 0
-139 44 0
-139 47 0
139 -44 -47 0
-140 19 0
-140 3 0
140 -19 -3 0
-141 140 0
-141 5 0
141 -140 -5 0
-142 139 0
-142 141 0
142 -139 -141 0
-143 62 0
-143 120 0
143 -62 -120 0
-144 142 0
-144 143 0
144 -142 -143 0
-145 62 0
-145 126 0
145 -62 -126 0
-146 142 0
-146 145 0
146 -142 -145 0
147 -144 -146 0
147 144 146 0
-147 -144 146 0
-147 144 -146 0
-148 138 0
-148 147 0
148 -138 -147 0
-150 22 0
-150 85 0
150 -22 -85 0
-151 114 0
-151 48 0
151 -114 -48 0
-152 150 0
-152 151 0
152 -150 -151 0
153 -149 -152 0
153 149 152 0
-153 -149 152 0
-153 149 -152 0
-154 148 0
-154 153 0
154 -148 -153 0
-156 139 0
-156 20 0
156 -139 -20 0
157 21 0
-157 -21 0
-158 156 0
-158 157 0
158 -156 -157 0
-159 120 0
-159 158 0
159 -120 -158 0
-160 155 0
-160 159 0
160 -155 -159 0
-161 56 0
-161 62 0
161 -56 -62 0
-162 126 0
-162 158 0
162 -126 -158 0
-163 161 0
-163 162 0
163 -161 -162 0
164 -160 -163 0
164 160 163 0
-164 -160 163 0
-164 160 -163 0
-165 154 0
-165 164 0
165 -154 -164 0
-166 20 0
-166 157 0
166 -20 -157 0
167 54 0
-167 -54 0
-168 166 0
-168 167 0
168 -166 -167 0
-170 168 0
-170 169 0
170 -168 -169 0
-171 48 0
-171 170 0
171 -48 -170 0
-172 132 0
-172 171 0
172 -132 -171 0
-173 135 0
-173 171 0
173 -135 -171 0
174 -172 -173 0
174 172 173 0
-174 -172 173 0
-174 172 -173 0
-175 165 0
-175 174 0
175 -165 -174 0
176 -65 0
176 -175 0
-176 65 175 0
176 0
